************************************************************************
file with basedata            : mm14_.bas
initial value random generator: 241842919
************************************************************************
projects                      :  1
jobs (incl. supersource/sink ):  12
horizon                       :  87
RESOURCES
  - renewable                 :  2   R
  - nonrenewable              :  2   N
  - doubly constrained        :  0   D
************************************************************************
PROJECT INFORMATION:
pronr.  #jobs rel.date duedate tardcost  MPM-Time
    1     10      0       14        7       14
************************************************************************
PRECEDENCE RELATIONS:
jobnr.    #modes  #successors   successors
   0        1          3           1   2   3
   1        3          2           5   8
   2        3          1           4
   3        3          2           6  10
   4        3          2           7   9
   5        3          2           9  10
   6        3          2           8   9
   7        3          1           8
   8        3          1          11
   9        3          1          11
  10        3          1          11
  11        1          0        
************************************************************************
REQUESTS/DURATIONS:
jobnr. mode duration  R 1  R 2  R 3  R 4  E(W 1)  E(W 2)
------------------------------------------------------------------------
  0      1     0       0    0    0    0     0       0
  1      1     4       9    0    6    8    36      56
  2      1     2       0    3    5    7     6      24
  3      1     2       9    0    8    9    18      34
  4      1     5       4    0    6    6    20      60
  5      1     7       0    7    9    2    49      77
  6      1     2      10    0    7    7    20      28
  7      1     1       0    8    8    5     8      13
  8      1     4       0    8    4    7    32      44
  9      1     3       0    5    6    7    15      39
 10      1     2       2    0    6    7     4      26
 11      1     0       0    0    0    0     0       0
************************************************************************
RESOURCEAVAILABILITIES:
  R 1  R 2
   34   109
************************************************************************
RESOURCE LIMITS:
jobnr.  l(R 1)  u(R 1)  l(R 2)  u(R 2)
------------------------------------------------------------------------
  0        0       0       0       0
  1        5       9       7      14
  2        2       3       7      12
  3        5       9       9      17
  4        2       4       6      12
  5        4       7       6      11
  6        5      10       8      14
  7        4       8       7      13
  8        4       8       6      11
  9        3       5       7      13
 10        1       2       7      13
 11        0       0       0       0
************************************************************************
SCENARIOS:
------------------------------------------------------------------------
RESOURCE k = 1
s = 1: (0, 26, 5, 20, 25, 62, 13, 10, 30, 13, 4, 0)
s = 2: (0, 43, 6, 23, 18, 27, 15, 7, 21, 15, 3, 0)
s = 3: (0, 53, 6, 24, 24, 34, 24, 8, 23, 14, 6, 0)
s = 4: (0, 42, 5, 20, 25, 51, 12, 8, 21, 13, 4, 0)
s = 5: (0, 28, 8, 22, 28, 62, 19, 5, 32, 24, 4, 0)
s = 6: (0, 34, 7, 25, 19, 56, 22, 12, 20, 11, 5, 0)
s = 7: (0, 46, 9, 11, 18, 57, 28, 6, 43, 12, 4, 0)
s = 8: (0, 39, 8, 15, 17, 48, 21, 7, 21, 25, 6, 0)
s = 9: (0, 42, 5, 15, 15, 29, 22, 8, 21, 12, 3, 0)
s = 10: (0, 40, 5, 23, 18, 50, 14, 8, 40, 8, 5, 0)
s = 11: (0, 33, 8, 14, 32, 29, 19, 8, 30, 16, 4, 0)
s = 12: (0, 21, 9, 13, 29, 53, 27, 6, 28, 18, 5, 0)
s = 13: (0, 23, 5, 23, 20, 34, 19, 10, 33, 19, 3, 0)
s = 14: (0, 37, 6, 19, 26, 49, 18, 7, 48, 12, 4, 0)
s = 15: (0, 42, 10, 22, 14, 50, 32, 8, 39, 10, 4, 0)
s = 16: (0, 32, 5, 22, 28, 75, 18, 5, 24, 8, 3, 0)
s = 17: (0, 48, 5, 15, 21, 43, 14, 11, 19, 11, 4, 0)
s = 18: (0, 27, 9, 11, 18, 65, 14, 11, 50, 14, 6, 0)
s = 19: (0, 43, 9, 21, 18, 74, 24, 6, 21, 19, 4, 0)
s = 20: (0, 45, 8, 16, 15, 45, 19, 8, 40, 10, 4, 0)
s = 21: (0, 56, 7, 19, 25, 45, 18, 7, 21, 11, 5, 0)
s = 22: (0, 38, 5, 20, 22, 61, 26, 9, 28, 13, 6, 0)
s = 23: (0, 68, 7, 12, 21, 63, 17, 6, 46, 15, 4, 0)
s = 24: (0, 22, 5, 26, 22, 52, 22, 7, 44, 21, 4, 0)
s = 25: (0, 49, 5, 11, 18, 67, 28, 9, 33, 11, 4, 0)
s = 26: (0, 42, 8, 22, 12, 42, 24, 5, 46, 13, 5, 0)
s = 27: (0, 30, 6, 17, 25, 49, 20, 10, 31, 20, 4, 0)
s = 28: (0, 23, 5, 15, 35, 41, 30, 8, 22, 16, 6, 0)
s = 29: (0, 45, 8, 15, 33, 60, 21, 9, 33, 26, 5, 0)
s = 30: (0, 33, 7, 16, 23, 46, 18, 10, 63, 19, 6, 0)
s = 31: (0, 29, 6, 12, 13, 31, 27, 8, 38, 14, 4, 0)
s = 32: (0, 28, 6, 14, 20, 63, 23, 6, 41, 17, 4, 0)
s = 33: (0, 26, 9, 11, 19, 33, 14, 7, 28, 14, 4, 0)
s = 34: (0, 41, 6, 22, 17, 60, 26, 6, 43, 18, 3, 0)
s = 35: (0, 22, 8, 14, 13, 69, 13, 9, 34, 12, 7, 0)
s = 36: (0, 24, 5, 11, 17, 34, 18, 6, 33, 8, 5, 0)
s = 37: (0, 37, 9, 15, 17, 64, 20, 6, 42, 18, 4, 0)
s = 38: (0, 25, 6, 13, 25, 37, 19, 8, 19, 10, 4, 0)
s = 39: (0, 30, 10, 13, 25, 66, 31, 8, 34, 21, 4, 0)
s = 40: (0, 34, 8, 20, 26, 30, 21, 11, 35, 13, 4, 0)
s = 41: (0, 25, 7, 25, 18, 78, 27, 7, 20, 14, 5, 0)
s = 42: (0, 25, 7, 22, 30, 42, 23, 9, 38, 20, 4, 0)
s = 43: (0, 47, 5, 17, 27, 27, 19, 6, 32, 14, 5, 0)
s = 44: (0, 20, 8, 18, 14, 55, 23, 6, 47, 19, 4, 0)
s = 45: (0, 28, 4, 26, 16, 78, 33, 8, 29, 17, 4, 0)
s = 46: (0, 23, 6, 18, 15, 37, 12, 6, 52, 22, 3, 0)
s = 47: (0, 48, 4, 16, 32, 46, 14, 8, 24, 10, 5, 0)
s = 48: (0, 32, 9, 30, 12, 32, 19, 10, 24, 22, 3, 0)
s = 49: (0, 51, 9, 19, 14, 59, 27, 10, 27, 17, 4, 0)
s = 50: (0, 30, 5, 10, 16, 31, 24, 6, 34, 16, 4, 0)
s = 51: (0, 50, 7, 13, 25, 43, 15, 7, 26, 17, 5, 0)
s = 52: (0, 26, 9, 23, 20, 80, 14, 13, 21, 17, 5, 0)
s = 53: (0, 38, 5, 24, 27, 45, 18, 11, 41, 12, 5, 0)
s = 54: (0, 46, 9, 21, 21, 57, 17, 9, 31, 12, 6, 0)
s = 55: (0, 43, 8, 19, 14, 76, 23, 7, 27, 14, 3, 0)
s = 56: (0, 53, 4, 31, 18, 44, 21, 11, 35, 16, 5, 0)
s = 57: (0, 33, 7, 26, 13, 61, 29, 5, 35, 12, 5, 0)
s = 58: (0, 50, 5, 15, 30, 39, 21, 9, 44, 14, 5, 0)
s = 59: (0, 31, 7, 26, 27, 56, 31, 12, 45, 9, 6, 0)
s = 60: (0, 29, 7, 19, 16, 63, 19, 10, 23, 15, 6, 0)
s = 61: (0, 39, 5, 16, 16, 33, 18, 7, 25, 9, 5, 0)
s = 62: (0, 44, 5, 19, 17, 33, 18, 7, 23, 16, 3, 0)
s = 63: (0, 51, 9, 16, 17, 65, 19, 8, 42, 17, 5, 0)
s = 64: (0, 33, 5, 11, 25, 31, 20, 10, 28, 10, 3, 0)
s = 65: (0, 31, 9, 26, 15, 54, 21, 6, 36, 11, 5, 0)
s = 66: (0, 25, 6, 18, 14, 31, 31, 9, 25, 13, 6, 0)
s = 67: (0, 44, 8, 20, 30, 29, 23, 10, 43, 16, 5, 0)
s = 68: (0, 25, 8, 15, 13, 63, 26, 9, 52, 18, 3, 0)
s = 69: (0, 28, 6, 21, 22, 49, 17, 8, 26, 10, 3, 0)
s = 70: (0, 29, 9, 19, 12, 44, 19, 7, 24, 11, 5, 0)
s = 71: (0, 41, 5, 19, 12, 75, 22, 7, 32, 12, 4, 0)
s = 72: (0, 24, 6, 23, 15, 29, 15, 6, 24, 15, 4, 0)
s = 73: (0, 32, 4, 14, 19, 80, 26, 7, 23, 24, 5, 0)
s = 74: (0, 38, 6, 22, 21, 34, 29, 7, 29, 26, 5, 0)
s = 75: (0, 56, 5, 15, 40, 51, 16, 9, 30, 11, 3, 0)
s = 76: (0, 56, 9, 12, 19, 28, 17, 8, 36, 16, 4, 0)
s = 77: (0, 24, 7, 29, 22, 57, 32, 9, 40, 19, 5, 0)
s = 78: (0, 46, 6, 23, 18, 40, 28, 8, 28, 10, 6, 0)
s = 79: (0, 30, 8, 17, 21, 35, 21, 11, 30, 15, 3, 0)
s = 80: (0, 23, 7, 21, 25, 66, 24, 9, 36, 16, 4, 0)
s = 81: (0, 34, 7, 17, 35, 33, 18, 7, 27, 14, 5, 0)
s = 82: (0, 36, 5, 19, 17, 87, 13, 13, 28, 9, 5, 0)
s = 83: (0, 51, 9, 17, 25, 34, 14, 6, 42, 15, 7, 0)
s = 84: (0, 26, 5, 20, 18, 49, 32, 7, 40, 19, 5, 0)
s = 85: (0, 32, 9, 11, 19, 69, 22, 7, 33, 22, 6, 0)
s = 86: (0, 57, 5, 17, 23, 39, 23, 5, 28, 11, 5, 0)
s = 87: (0, 25, 7, 16, 19, 28, 16, 9, 28, 27, 3, 0)
s = 88: (0, 34, 7, 15, 25, 77, 25, 11, 27, 25, 4, 0)
s = 89: (0, 26, 8, 21, 20, 41, 18, 12, 31, 17, 3, 0)
s = 90: (0, 23, 9, 25, 22, 54, 22, 8, 40, 13, 5, 0)
s = 91: (0, 36, 7, 13, 19, 42, 17, 7, 25, 27, 4, 0)
s = 92: (0, 47, 4, 16, 25, 54, 16, 13, 23, 13, 4, 0)
s = 93: (0, 48, 10, 17, 15, 36, 16, 10, 25, 17, 5, 0)
s = 94: (0, 41, 6, 22, 14, 35, 22, 9, 20, 10, 5, 0)
s = 95: (0, 24, 5, 33, 13, 45, 25, 9, 24, 13, 4, 0)
s = 96: (0, 24, 7, 19, 17, 29, 14, 9, 19, 17, 5, 0)
s = 97: (0, 26, 7, 11, 19, 50, 15, 8, 26, 14, 4, 0)
s = 98: (0, 54, 7, 21, 16, 41, 22, 6, 29, 19, 6, 0)
s = 99: (0, 29, 9, 24, 21, 78, 20, 12, 20, 13, 3, 0)
s = 100: (0, 37, 5, 25, 26, 91, 20, 7, 43, 20, 5, 0)
s = 101: (0, 33, 8, 11, 22, 36, 26, 12, 37, 12, 6, 0)
s = 102: (0, 27, 8, 16, 12, 49, 17, 8, 19, 18, 4, 0)
s = 103: (0, 30, 9, 16, 15, 68, 15, 8, 23, 11, 8, 0)
s = 104: (0, 43, 7, 18, 17, 78, 20, 10, 31, 16, 6, 0)
s = 105: (0, 56, 9, 17, 21, 54, 13, 10, 47, 18, 4, 0)
s = 106: (0, 28, 8, 23, 20, 62, 13, 6, 25, 21, 4, 0)
s = 107: (0, 31, 8, 21, 25, 72, 27, 8, 37, 12, 4, 0)
s = 108: (0, 49, 4, 25, 17, 29, 19, 10, 54, 12, 6, 0)
s = 109: (0, 23, 6, 21, 26, 34, 30, 8, 42, 14, 4, 0)
s = 110: (0, 47, 6, 17, 16, 30, 14, 7, 27, 21, 4, 0)
s = 111: (0, 27, 7, 20, 14, 41, 28, 7, 30, 13, 5, 0)
s = 112: (0, 47, 6, 25, 19, 60, 23, 8, 29, 17, 6, 0)
s = 113: (0, 30, 5, 12, 18, 37, 22, 8, 36, 19, 5, 0)
s = 114: (0, 21, 5, 23, 29, 28, 30, 12, 37, 16, 7, 0)
s = 115: (0, 24, 9, 19, 18, 43, 22, 9, 19, 15, 6, 0)
s = 116: (0, 42, 4, 24, 16, 52, 16, 11, 25, 16, 5, 0)
s = 117: (0, 29, 4, 19, 17, 39, 18, 9, 26, 15, 5, 0)
s = 118: (0, 27, 7, 20, 17, 51, 23, 7, 39, 22, 4, 0)
s = 119: (0, 40, 6, 26, 17, 52, 20, 6, 34, 19, 3, 0)
s = 120: (0, 32, 6, 15, 24, 57, 21, 11, 32, 15, 5, 0)
s = 121: (0, 23, 7, 13, 16, 75, 19, 10, 31, 21, 5, 0)
s = 122: (0, 25, 8, 15, 27, 38, 17, 12, 27, 13, 6, 0)
s = 123: (0, 34, 7, 20, 19, 42, 34, 14, 47, 10, 5, 0)
s = 124: (0, 22, 6, 14, 14, 59, 19, 8, 29, 11, 4, 0)
s = 125: (0, 45, 8, 16, 26, 46, 16, 10, 26, 18, 4, 0)
s = 126: (0, 22, 5, 25, 18, 55, 19, 9, 36, 14, 5, 0)
s = 127: (0, 34, 6, 14, 14, 50, 21, 7, 38, 15, 5, 0)
s = 128: (0, 40, 5, 21, 15, 30, 28, 8, 53, 20, 3, 0)
s = 129: (0, 23, 9, 23, 15, 54, 20, 6, 46, 15, 6, 0)
s = 130: (0, 43, 6, 24, 21, 91, 22, 7, 34, 10, 6, 0)
s = 131: (0, 26, 6, 17, 12, 33, 24, 6, 37, 19, 5, 0)
s = 132: (0, 42, 7, 14, 16, 40, 21, 6, 22, 26, 3, 0)
s = 133: (0, 41, 4, 24, 24, 38, 15, 13, 39, 20, 6, 0)
s = 134: (0, 36, 9, 25, 17, 37, 21, 11, 31, 19, 5, 0)
s = 135: (0, 32, 7, 24, 15, 50, 21, 9, 26, 14, 4, 0)
s = 136: (0, 33, 6, 23, 14, 62, 17, 7, 40, 9, 7, 0)
s = 137: (0, 36, 9, 15, 14, 32, 17, 7, 21, 18, 4, 0)
s = 138: (0, 30, 9, 19, 15, 39, 23, 5, 36, 17, 3, 0)
s = 139: (0, 27, 6, 13, 31, 73, 27, 6, 36, 16, 4, 0)
s = 140: (0, 35, 6, 17, 14, 42, 27, 8, 24, 20, 5, 0)
s = 141: (0, 37, 7, 21, 18, 67, 26, 7, 19, 21, 6, 0)
s = 142: (0, 45, 7, 18, 22, 61, 18, 8, 34, 25, 6, 0)
s = 143: (0, 24, 6, 14, 13, 35, 16, 9, 19, 17, 4, 0)
s = 144: (0, 43, 4, 11, 23, 79, 15, 12, 45, 14, 4, 0)
s = 145: (0, 34, 5, 16, 21, 56, 15, 6, 33, 12, 3, 0)
s = 146: (0, 30, 5, 16, 18, 46, 25, 7, 33, 16, 6, 0)
s = 147: (0, 22, 5, 14, 18, 28, 24, 10, 33, 18, 5, 0)
s = 148: (0, 29, 8, 16, 15, 43, 11, 6, 38, 15, 4, 0)
s = 149: (0, 25, 8, 21, 26, 68, 11, 7, 30, 13, 4, 0)
s = 150: (0, 29, 10, 12, 22, 81, 21, 11, 46, 13, 3, 0)
s = 151: (0, 59, 5, 27, 34, 52, 15, 9, 26, 15, 4, 0)
s = 152: (0, 54, 4, 15, 17, 61, 18, 7, 22, 10, 4, 0)
s = 153: (0, 55, 8, 24, 18, 38, 28, 7, 53, 10, 5, 0)
s = 154: (0, 28, 8, 23, 17, 33, 26, 9, 48, 15, 3, 0)
s = 155: (0, 37, 6, 19, 21, 51, 24, 9, 39, 16, 5, 0)
s = 156: (0, 40, 6, 15, 18, 33, 19, 7, 32, 20, 5, 0)
s = 157: (0, 31, 5, 15, 19, 65, 21, 6, 28, 14, 6, 0)
s = 158: (0, 44, 6, 15, 34, 51, 20, 8, 30, 13, 4, 0)
s = 159: (0, 31, 5, 21, 16, 31, 14, 10, 45, 15, 7, 0)
s = 160: (0, 38, 4, 17, 20, 57, 30, 6, 30, 20, 4, 0)
s = 161: (0, 21, 7, 22, 15, 56, 17, 10, 27, 17, 5, 0)
s = 162: (0, 37, 4, 26, 25, 61, 25, 8, 44, 9, 5, 0)
s = 163: (0, 44, 8, 18, 18, 63, 23, 5, 21, 17, 8, 0)
s = 164: (0, 48, 7, 22, 30, 59, 15, 7, 29, 10, 5, 0)
s = 165: (0, 37, 8, 16, 29, 50, 29, 8, 43, 16, 6, 0)
s = 166: (0, 53, 6, 24, 13, 35, 22, 10, 44, 18, 5, 0)
s = 167: (0, 28, 6, 20, 16, 44, 15, 11, 30, 10, 3, 0)
s = 168: (0, 66, 6, 18, 28, 40, 23, 7, 41, 13, 6, 0)
s = 169: (0, 30, 7, 13, 12, 56, 11, 10, 37, 19, 5, 0)
s = 170: (0, 36, 7, 17, 11, 44, 20, 6, 43, 16, 5, 0)
s = 171: (0, 47, 6, 21, 12, 36, 24, 6, 27, 18, 4, 0)
s = 172: (0, 26, 10, 19, 18, 61, 19, 5, 28, 18, 6, 0)
s = 173: (0, 30, 5, 15, 23, 53, 27, 6, 35, 18, 3, 0)
s = 174: (0, 49, 5, 25, 15, 72, 28, 7, 30, 21, 3, 0)
s = 175: (0, 25, 9, 34, 22, 44, 18, 10, 35, 16, 3, 0)
s = 176: (0, 52, 8, 26, 28, 60, 24, 13, 37, 19, 4, 0)
s = 177: (0, 31, 7, 25, 19, 58, 37, 11, 21, 12, 5, 0)
s = 178: (0, 29, 4, 24, 21, 50, 17, 8, 40, 18, 7, 0)
s = 179: (0, 34, 6, 21, 13, 66, 21, 10, 42, 18, 3, 0)
s = 180: (0, 44, 8, 19, 29, 54, 14, 5, 38, 15, 5, 0)
s = 181: (0, 49, 5, 19, 30, 77, 29, 10, 27, 19, 4, 0)
s = 182: (0, 51, 4, 23, 17, 87, 17, 5, 45, 11, 4, 0)
s = 183: (0, 35, 8, 17, 13, 60, 22, 10, 30, 12, 6, 0)
s = 184: (0, 25, 6, 11, 25, 55, 13, 10, 29, 16, 5, 0)
s = 185: (0, 52, 5, 13, 28, 50, 18, 9, 30, 15, 6, 0)
s = 186: (0, 36, 7, 20, 30, 47, 18, 8, 36, 14, 6, 0)
s = 187: (0, 27, 8, 18, 20, 61, 24, 11, 32, 10, 5, 0)
s = 188: (0, 60, 9, 21, 27, 39, 21, 10, 28, 13, 6, 0)
s = 189: (0, 26, 8, 16, 17, 43, 23, 10, 27, 14, 6, 0)
s = 190: (0, 37, 5, 17, 15, 55, 28, 12, 39, 13, 3, 0)
s = 191: (0, 36, 5, 18, 12, 36, 37, 11, 41, 14, 5, 0)
s = 192: (0, 35, 4, 10, 16, 72, 26, 13, 25, 10, 5, 0)
s = 193: (0, 29, 7, 19, 19, 31, 17, 9, 20, 18, 4, 0)
s = 194: (0, 55, 5, 22, 25, 43, 22, 8, 28, 22, 5, 0)
s = 195: (0, 37, 6, 17, 29, 58, 21, 8, 30, 12, 4, 0)
s = 196: (0, 25, 6, 25, 21, 39, 25, 10, 22, 17, 3, 0)
s = 197: (0, 51, 6, 26, 20, 31, 16, 7, 26, 26, 3, 0)
s = 198: (0, 24, 5, 20, 24, 66, 26, 8, 25, 14, 4, 0)
s = 199: (0, 30, 7, 14, 12, 49, 18, 7, 30, 13, 5, 0)
s = 200: (0, 59, 8, 23, 22, 39, 24, 5, 34, 24, 5, 0)
------------------------------------------------------------------------
RESOURCE k = 2
s = 1: (0, 40, 18, 38, 74, 97, 18, 16, 41, 34, 26, 0)
s = 2: (0, 67, 21, 44, 52, 42, 20, 11, 29, 38, 17, 0)
s = 3: (0, 83, 24, 45, 71, 53, 33, 12, 31, 35, 37, 0)
s = 4: (0, 65, 17, 37, 73, 79, 17, 13, 28, 34, 23, 0)
s = 5: (0, 44, 32, 41, 84, 97, 27, 8, 43, 61, 22, 0)
s = 6: (0, 52, 25, 47, 57, 87, 30, 20, 27, 27, 29, 0)
s = 7: (0, 71, 36, 21, 54, 89, 38, 10, 59, 31, 24, 0)
s = 8: (0, 60, 31, 27, 49, 75, 29, 12, 28, 65, 33, 0)
s = 9: (0, 66, 17, 29, 43, 46, 31, 13, 28, 31, 17, 0)
s = 10: (0, 61, 20, 43, 53, 78, 19, 12, 55, 21, 32, 0)
s = 11: (0, 51, 29, 27, 95, 45, 26, 12, 41, 40, 26, 0)
s = 12: (0, 33, 36, 24, 85, 83, 38, 9, 39, 47, 27, 0)
s = 13: (0, 36, 20, 42, 60, 53, 27, 16, 45, 47, 17, 0)
s = 14: (0, 57, 24, 35, 77, 77, 25, 11, 65, 30, 26, 0)
s = 15: (0, 65, 38, 41, 40, 78, 44, 12, 54, 26, 22, 0)
s = 16: (0, 50, 18, 41, 84, 117, 25, 9, 33, 21, 19, 0)
s = 17: (0, 74, 20, 27, 62, 67, 19, 17, 25, 28, 21, 0)
s = 18: (0, 41, 34, 20, 54, 101, 20, 17, 69, 35, 34, 0)
s = 19: (0, 67, 34, 39, 53, 116, 34, 9, 29, 49, 25, 0)
s = 20: (0, 70, 30, 30, 44, 71, 26, 13, 55, 24, 26, 0)
s = 21: (0, 87, 26, 36, 75, 70, 25, 12, 29, 28, 31, 0)
s = 22: (0, 60, 19, 38, 66, 95, 36, 15, 38, 33, 34, 0)
s = 23: (0, 106, 25, 22, 63, 99, 24, 9, 63, 39, 23, 0)
s = 24: (0, 33, 20, 49, 65, 81, 31, 11, 61, 54, 25, 0)
s = 25: (0, 76, 18, 21, 54, 105, 38, 15, 45, 28, 25, 0)
s = 26: (0, 65, 30, 42, 34, 65, 34, 7, 62, 32, 30, 0)
s = 27: (0, 47, 22, 32, 74, 77, 28, 16, 42, 50, 21, 0)
s = 28: (0, 36, 18, 27, 103, 65, 42, 13, 30, 40, 38, 0)
s = 29: (0, 70, 30, 28, 98, 94, 29, 14, 46, 67, 27, 0)
s = 30: (0, 51, 26, 29, 67, 72, 26, 16, 87, 50, 33, 0)
s = 31: (0, 45, 21, 21, 38, 49, 37, 13, 53, 35, 21, 0)
s = 32: (0, 43, 23, 27, 58, 98, 31, 10, 56, 43, 23, 0)
s = 33: (0, 40, 34, 21, 56, 51, 19, 12, 39, 35, 21, 0)
s = 34: (0, 64, 21, 41, 51, 95, 37, 9, 59, 47, 17, 0)
s = 35: (0, 33, 32, 25, 39, 107, 17, 14, 46, 31, 41, 0)
s = 36: (0, 37, 19, 20, 49, 54, 25, 10, 45, 21, 28, 0)
s = 37: (0, 57, 33, 27, 50, 100, 28, 9, 58, 46, 25, 0)
s = 38: (0, 39, 22, 24, 73, 59, 26, 13, 26, 26, 21, 0)
s = 39: (0, 46, 38, 23, 73, 103, 43, 13, 46, 54, 25, 0)
s = 40: (0, 53, 29, 38, 76, 46, 30, 17, 48, 33, 20, 0)
s = 41: (0, 39, 27, 47, 52, 122, 37, 11, 27, 36, 27, 0)
s = 42: (0, 38, 25, 42, 89, 65, 32, 14, 52, 51, 21, 0)
s = 43: (0, 73, 19, 31, 80, 42, 27, 9, 43, 36, 33, 0)
s = 44: (0, 31, 31, 33, 40, 87, 31, 10, 64, 48, 22, 0)
s = 45: (0, 43, 16, 48, 46, 123, 46, 12, 39, 44, 26, 0)
s = 46: (0, 35, 22, 33, 44, 57, 17, 10, 71, 56, 20, 0)
s = 47: (0, 74, 15, 29, 96, 72, 20, 13, 32, 26, 27, 0)
s = 48: (0, 49, 36, 56, 36, 49, 27, 16, 33, 55, 19, 0)
s = 49: (0, 79, 35, 36, 40, 92, 38, 16, 37, 44, 24, 0)
s = 50: (0, 46, 18, 18, 46, 49, 33, 10, 47, 41, 25, 0)
s = 51: (0, 77, 26, 25, 75, 68, 20, 11, 36, 43, 30, 0)
s = 52: (0, 40, 36, 42, 59, 125, 19, 22, 29, 43, 30, 0)
s = 53: (0, 59, 19, 45, 79, 71, 26, 18, 56, 31, 27, 0)
s = 54: (0, 71, 33, 39, 62, 89, 24, 14, 42, 31, 34, 0)
s = 55: (0, 67, 29, 35, 42, 119, 32, 12, 37, 35, 19, 0)
s = 56: (0, 82, 15, 58, 53, 69, 29, 18, 49, 41, 31, 0)
s = 57: (0, 51, 26, 49, 38, 96, 40, 7, 47, 31, 30, 0)
s = 58: (0, 77, 18, 29, 88, 61, 30, 15, 60, 36, 31, 0)
s = 59: (0, 48, 26, 49, 79, 88, 43, 20, 62, 22, 37, 0)
s = 60: (0, 45, 27, 35, 46, 98, 26, 17, 32, 37, 35, 0)
s = 61: (0, 61, 20, 30, 46, 52, 25, 11, 35, 24, 31, 0)
s = 62: (0, 67, 20, 35, 50, 52, 25, 10, 31, 40, 15, 0)
s = 63: (0, 79, 34, 30, 51, 102, 26, 12, 57, 42, 27, 0)
s = 64: (0, 51, 17, 21, 74, 49, 27, 17, 39, 24, 19, 0)
s = 65: (0, 48, 36, 49, 43, 84, 29, 10, 50, 27, 30, 0)
s = 66: (0, 38, 21, 34, 42, 48, 44, 15, 34, 34, 34, 0)
s = 67: (0, 68, 29, 37, 90, 45, 32, 16, 60, 42, 30, 0)
s = 68: (0, 39, 30, 28, 38, 98, 36, 14, 71, 45, 18, 0)
s = 69: (0, 44, 23, 39, 65, 76, 24, 13, 36, 25, 19, 0)
s = 70: (0, 45, 33, 36, 35, 69, 27, 12, 33, 27, 30, 0)
s = 71: (0, 64, 20, 35, 36, 118, 31, 11, 44, 31, 23, 0)
s = 72: (0, 36, 24, 42, 43, 45, 20, 9, 32, 39, 21, 0)
s = 73: (0, 49, 16, 27, 56, 126, 37, 12, 31, 62, 28, 0)
s = 74: (0, 59, 22, 40, 62, 53, 41, 11, 40, 66, 29, 0)
s = 75: (0, 86, 18, 28, 120, 80, 22, 14, 41, 27, 17, 0)
s = 76: (0, 86, 36, 22, 56, 43, 23, 12, 50, 40, 20, 0)
s = 77: (0, 36, 27, 55, 64, 89, 44, 14, 55, 49, 30, 0)
s = 78: (0, 71, 21, 43, 53, 62, 40, 12, 38, 25, 37, 0)
s = 79: (0, 46, 31, 32, 61, 54, 29, 17, 41, 37, 19, 0)
s = 80: (0, 36, 25, 38, 73, 103, 33, 15, 49, 41, 22, 0)
s = 81: (0, 53, 26, 31, 103, 52, 25, 10, 37, 34, 30, 0)
s = 82: (0, 56, 20, 35, 50, 137, 18, 21, 38, 23, 30, 0)
s = 83: (0, 79, 33, 31, 74, 53, 19, 9, 57, 39, 42, 0)
s = 84: (0, 39, 19, 37, 53, 77, 44, 11, 55, 47, 29, 0)
s = 85: (0, 50, 33, 20, 56, 109, 30, 11, 45, 56, 38, 0)
s = 86: (0, 89, 18, 31, 69, 60, 33, 8, 39, 29, 31, 0)
s = 87: (0, 39, 28, 30, 57, 44, 22, 14, 38, 68, 18, 0)
s = 88: (0, 52, 27, 27, 73, 121, 35, 17, 38, 63, 26, 0)
s = 89: (0, 40, 31, 40, 58, 64, 24, 19, 42, 43, 19, 0)
s = 90: (0, 36, 35, 47, 64, 84, 31, 13, 55, 33, 27, 0)
s = 91: (0, 55, 28, 24, 56, 66, 23, 11, 34, 71, 23, 0)
s = 92: (0, 73, 16, 29, 73, 85, 22, 21, 32, 32, 25, 0)
s = 93: (0, 75, 40, 31, 43, 57, 22, 16, 35, 43, 27, 0)
s = 94: (0, 63, 22, 42, 40, 54, 30, 14, 27, 25, 28, 0)
s = 95: (0, 37, 20, 62, 39, 71, 34, 14, 33, 34, 23, 0)
s = 96: (0, 37, 27, 36, 51, 45, 20, 14, 26, 43, 27, 0)
s = 97: (0, 40, 25, 21, 57, 78, 20, 12, 35, 37, 24, 0)
s = 98: (0, 84, 27, 39, 46, 64, 31, 10, 40, 48, 39, 0)
s = 99: (0, 45, 33, 45, 61, 122, 27, 20, 27, 33, 14, 0)
s = 100: (0, 57, 19, 47, 77, 143, 28, 11, 59, 51, 28, 0)
s = 101: (0, 51, 29, 21, 65, 56, 37, 20, 50, 30, 37, 0)
s = 102: (0, 42, 30, 30, 36, 77, 24, 13, 26, 47, 22, 0)
s = 103: (0, 46, 36, 30, 45, 106, 20, 13, 31, 28, 46, 0)
s = 104: (0, 66, 27, 34, 49, 122, 27, 15, 42, 41, 38, 0)
s = 105: (0, 86, 34, 32, 62, 85, 18, 15, 65, 46, 22, 0)
s = 106: (0, 43, 29, 43, 60, 97, 18, 10, 34, 53, 25, 0)
s = 107: (0, 48, 30, 39, 75, 113, 37, 12, 51, 30, 24, 0)
s = 108: (0, 76, 16, 46, 51, 45, 26, 15, 73, 31, 34, 0)
s = 109: (0, 35, 24, 39, 76, 53, 42, 12, 58, 37, 21, 0)
s = 110: (0, 73, 21, 31, 48, 48, 20, 11, 38, 53, 20, 0)
s = 111: (0, 41, 27, 37, 42, 64, 39, 12, 40, 33, 27, 0)
s = 112: (0, 73, 23, 46, 55, 93, 33, 13, 40, 42, 34, 0)
s = 113: (0, 46, 19, 23, 52, 57, 30, 12, 49, 49, 28, 0)
s = 114: (0, 33, 19, 42, 86, 44, 42, 19, 51, 42, 44, 0)
s = 115: (0, 38, 33, 35, 54, 67, 31, 15, 26, 38, 37, 0)
s = 116: (0, 65, 14, 45, 48, 81, 23, 17, 34, 40, 31, 0)
s = 117: (0, 45, 15, 35, 50, 61, 25, 15, 36, 38, 29, 0)
s = 118: (0, 41, 25, 38, 51, 80, 32, 11, 54, 57, 26, 0)
s = 119: (0, 63, 21, 48, 51, 81, 27, 9, 46, 49, 16, 0)
s = 120: (0, 50, 24, 27, 71, 89, 29, 17, 44, 39, 27, 0)
s = 121: (0, 35, 25, 24, 47, 118, 27, 16, 43, 54, 29, 0)
s = 122: (0, 38, 31, 27, 79, 59, 23, 18, 37, 34, 35, 0)
s = 123: (0, 53, 26, 37, 57, 66, 47, 22, 65, 25, 29, 0)
s = 124: (0, 33, 23, 26, 40, 92, 27, 12, 40, 29, 24, 0)
s = 125: (0, 69, 29, 30, 77, 71, 22, 16, 35, 46, 23, 0)
s = 126: (0, 34, 19, 46, 54, 86, 27, 14, 49, 36, 30, 0)
s = 127: (0, 53, 24, 27, 42, 78, 29, 12, 51, 37, 27, 0)
s = 128: (0, 62, 20, 40, 43, 47, 39, 13, 72, 52, 17, 0)
s = 129: (0, 35, 36, 43, 44, 84, 28, 9, 63, 39, 38, 0)
s = 130: (0, 67, 23, 44, 62, 143, 31, 11, 47, 25, 35, 0)
s = 131: (0, 40, 24, 32, 35, 51, 33, 10, 51, 49, 32, 0)
s = 132: (0, 65, 27, 25, 46, 63, 29, 9, 30, 68, 18, 0)
s = 133: (0, 64, 14, 45, 71, 59, 21, 22, 53, 52, 33, 0)
s = 134: (0, 55, 35, 46, 49, 58, 29, 17, 42, 49, 32, 0)
s = 135: (0, 50, 28, 44, 43, 78, 29, 14, 35, 36, 26, 0)
s = 136: (0, 51, 23, 42, 40, 97, 24, 11, 55, 23, 44, 0)
s = 137: (0, 56, 33, 28, 41, 50, 24, 12, 29, 47, 21, 0)
s = 138: (0, 47, 34, 35, 44, 61, 31, 8, 49, 44, 18, 0)
s = 139: (0, 42, 21, 24, 92, 114, 37, 9, 49, 41, 21, 0)
s = 140: (0, 54, 22, 32, 41, 66, 38, 13, 32, 52, 28, 0)
s = 141: (0, 57, 25, 39, 54, 105, 36, 11, 25, 54, 34, 0)
s = 142: (0, 69, 26, 34, 64, 96, 25, 13, 47, 64, 37, 0)
s = 143: (0, 37, 21, 26, 37, 54, 22, 14, 26, 42, 21, 0)
s = 144: (0, 66, 16, 20, 67, 124, 21, 20, 62, 35, 25, 0)
s = 145: (0, 52, 18, 29, 63, 88, 21, 9, 45, 30, 19, 0)
s = 146: (0, 47, 17, 30, 54, 72, 35, 10, 46, 40, 38, 0)
s = 147: (0, 34, 20, 26, 53, 43, 33, 16, 45, 45, 27, 0)
s = 148: (0, 45, 32, 30, 44, 68, 15, 9, 52, 39, 22, 0)
s = 149: (0, 38, 29, 40, 78, 107, 16, 11, 41, 34, 23, 0)
s = 150: (0, 46, 37, 23, 65, 126, 29, 18, 63, 33, 18, 0)
s = 151: (0, 92, 17, 50, 100, 81, 20, 14, 35, 39, 25, 0)
s = 152: (0, 84, 15, 27, 51, 95, 25, 12, 30, 26, 25, 0)
s = 153: (0, 85, 31, 45, 52, 59, 38, 11, 73, 25, 32, 0)
s = 154: (0, 44, 29, 43, 49, 52, 36, 14, 66, 38, 19, 0)
s = 155: (0, 57, 21, 35, 63, 79, 33, 15, 54, 41, 28, 0)
s = 156: (0, 62, 23, 28, 54, 51, 27, 11, 44, 52, 27, 0)
s = 157: (0, 48, 20, 28, 57, 102, 29, 10, 38, 36, 34, 0)
s = 158: (0, 69, 22, 28, 100, 81, 28, 12, 41, 34, 26, 0)
s = 159: (0, 48, 17, 40, 48, 49, 19, 16, 62, 38, 40, 0)
s = 160: (0, 59, 14, 31, 58, 89, 41, 10, 41, 51, 25, 0)
s = 161: (0, 33, 27, 42, 45, 87, 23, 16, 37, 44, 30, 0)
s = 162: (0, 57, 15, 50, 74, 95, 35, 12, 61, 22, 27, 0)
s = 163: (0, 69, 29, 33, 52, 99, 32, 8, 28, 44, 50, 0)
s = 164: (0, 74, 25, 40, 89, 92, 20, 10, 40, 25, 32, 0)
s = 165: (0, 57, 31, 30, 86, 78, 41, 13, 59, 41, 35, 0)
s = 166: (0, 82, 23, 45, 37, 54, 31, 16, 60, 46, 27, 0)
s = 167: (0, 43, 23, 37, 48, 69, 21, 18, 41, 26, 17, 0)
s = 168: (0, 103, 21, 33, 83, 63, 32, 12, 56, 33, 38, 0)
s = 169: (0, 47, 26, 25, 35, 87, 16, 16, 50, 48, 28, 0)
s = 170: (0, 56, 28, 31, 33, 69, 27, 9, 59, 42, 27, 0)
s = 171: (0, 73, 23, 39, 34, 57, 34, 10, 37, 45, 21, 0)
s = 172: (0, 40, 39, 36, 52, 96, 26, 8, 39, 47, 38, 0)
s = 173: (0, 46, 20, 28, 68, 83, 37, 10, 47, 46, 17, 0)
s = 174: (0, 76, 19, 46, 45, 114, 39, 11, 41, 54, 15, 0)
s = 175: (0, 39, 34, 63, 65, 69, 25, 16, 49, 40, 20, 0)
s = 176: (0, 80, 29, 48, 84, 94, 33, 21, 51, 47, 24, 0)
s = 177: (0, 47, 28, 46, 55, 90, 51, 18, 29, 31, 33, 0)
s = 178: (0, 45, 13, 45, 62, 78, 23, 12, 55, 45, 40, 0)
s = 179: (0, 52, 23, 40, 37, 104, 29, 16, 58, 45, 15, 0)
s = 180: (0, 68, 30, 35, 85, 84, 19, 8, 52, 38, 31, 0)
s = 181: (0, 77, 18, 35, 88, 120, 40, 15, 37, 47, 25, 0)
s = 182: (0, 79, 15, 43, 49, 136, 24, 8, 62, 28, 22, 0)
s = 183: (0, 54, 32, 32, 39, 94, 31, 15, 42, 31, 35, 0)
s = 184: (0, 39, 21, 21, 74, 86, 17, 16, 40, 41, 28, 0)
s = 185: (0, 80, 20, 24, 84, 78, 25, 14, 41, 37, 34, 0)
s = 186: (0, 55, 27, 38, 88, 74, 25, 13, 49, 35, 34, 0)
s = 187: (0, 41, 30, 33, 59, 95, 34, 18, 44, 26, 33, 0)
s = 188: (0, 93, 35, 39, 81, 61, 29, 15, 38, 32, 37, 0)
s = 189: (0, 40, 29, 31, 50, 68, 31, 16, 37, 35, 35, 0)
s = 190: (0, 57, 20, 33, 44, 87, 39, 19, 54, 34, 17, 0)
s = 191: (0, 56, 19, 34, 36, 57, 52, 18, 56, 35, 27, 0)
s = 192: (0, 54, 14, 19, 48, 113, 36, 21, 34, 26, 31, 0)
s = 193: (0, 45, 25, 36, 56, 48, 23, 14, 27, 46, 26, 0)
s = 194: (0, 85, 19, 40, 74, 67, 31, 12, 39, 57, 29, 0)
s = 195: (0, 58, 23, 32, 85, 90, 30, 13, 41, 29, 23, 0)
s = 196: (0, 39, 22, 47, 61, 60, 35, 16, 30, 42, 17, 0)
s = 197: (0, 78, 22, 48, 60, 49, 22, 11, 36, 66, 15, 0)
s = 198: (0, 38, 17, 38, 71, 103, 36, 13, 34, 36, 21, 0)
s = 199: (0, 46, 27, 27, 36, 77, 25, 12, 41, 33, 27, 0)
s = 200: (0, 91, 31, 42, 65, 61, 33, 8, 46, 61, 31, 0)
************************************************************************
ES/LS-VALUES:
jobnr.   ES(i)    LS(i)
------------------------------------------------------------------------
  0        0        0
  1        0       60
  2        0       63
  3        0       71
  4        3       67
  5        7       68
  6        3       75
  7       13       77
  8       14       79
  9       20       81
 10       20       83
 11       25       87
************************************************************************
BIG-M-VALUES:
M1 = 47, M2 = 234
************************************************************************
